p cnf 7230 15
3050 3051 0
2382 -3051 0
-2382 -3050 0
3048 3049 0
2380 -3049 0
-2380 -3048 0
3046 3047 0
2376 -3047 0
-2376 -3046 0
3044 3045 0
2374 -3045 0
-2374 -3044 0
3042 3043 0
2372 -3043 0
-2372 -3042 0
